60
1 0 1
2 1 1
3 1 1
4 1 1
4 2 1
5 0 1
6 0 1
6 2 1
6 3 1
7 5 1
7 6 1
8 1 1
8 3 1
8 4 1
8 7 1
9 0 1
9 2 1
9 4 1
9 6 1
10 2 1
10 3 1
10 4 1
11 0 1
11 1 1
11 3 1
11 5 1
11 7 1
11 9 1
12 0 1
12 1 1
12 2 1
12 6 1
13 1 1
13 3 1
13 7 1
14 0 1
14 1 1
14 3 1
14 6 1
14 7 1
14 8 1
14 9 1
14 12 1
14 13 1
15 0 1
15 1 1
15 2 1
15 3 1
15 6 1
15 8 1
15 9 1
15 11 1
16 0 1
16 1 1
16 8 1
16 10 1
16 11 1
16 14 1
16 15 1
17 1 1
17 2 1
17 8 1
17 9 1
17 12 1
17 13 1
17 14 1
17 15 1
18 0 1
18 1 1
18 5 1
18 6 1
18 7 1
18 10 1
18 11 1
19 1 1
19 2 1
19 3 1
19 4 1
19 7 1
19 15 1
19 16 1
19 17 1
19 18 1
20 1 1
20 2 1
20 3 1
20 8 1
20 9 1
20 10 1
20 11 1
20 13 1
20 14 1
20 15 1
20 17 1
20 18 1
20 19 1
21 1 1
21 2 1
21 4 1
21 7 1
21 9 1
21 10 1
21 11 1
21 14 1
21 17 1
21 19 1
21 20 1
22 3 1
22 4 1
22 5 1
22 8 1
22 10 1
22 11 1
22 13 1
22 17 1
22 20 1
23 4 1
23 5 1
23 7 1
23 11 1
23 12 1
23 13 1
23 14 1
23 15 1
23 18 1
23 19 1
23 22 1
24 1 1
24 2 1
24 5 1
24 8 1
24 10 1
24 13 1
24 15 1
24 19 1
24 20 1
25 0 1
25 3 1
25 7 1
25 9 1
25 11 1
25 13 1
25 15 1
25 17 1
25 18 1
25 19 1
25 22 1
25 24 1
26 5 1
26 6 1
26 11 1
26 12 1
26 13 1
26 15 1
26 17 1
26 19 1
26 21 1
26 22 1
26 24 1
26 25 1
27 0 1
27 2 1
27 4 1
27 8 1
27 9 1
27 11 1
27 15 1
27 19 1
27 21 1
27 24 1
27 25 1
27 26 1
28 0 1
28 2 1
28 3 1
28 4 1
28 7 1
28 8 1
28 9 1
28 10 1
28 11 1
28 12 1
28 16 1
28 18 1
28 19 1
28 20 1
28 21 1
28 27 1
29 1 1
29 3 1
29 6 1
29 10 1
29 11 1
29 12 1
29 15 1
29 18 1
29 19 1
29 21 1
29 22 1
29 23 1
30 0 1
30 2 1
30 4 1
30 5 1
30 7 1
30 8 1
30 9 1
30 12 1
30 13 1
30 14 1
30 16 1
30 17 1
30 18 1
30 20 1
30 21 1
30 23 1
30 24 1
30 25 1
30 26 1
30 27 1
30 28 1
30 29 1
31 1 1
31 3 1
31 4 1
31 5 1
31 6 1
31 7 1
31 9 1
31 11 1
31 12 1
31 13 1
31 16 1
31 17 1
31 19 1
31 20 1
31 23 1
31 25 1
31 26 1
31 27 1
31 28 1
31 29 1
32 2 1
32 4 1
32 5 1
32 6 1
32 9 1
32 11 1
32 12 1
32 14 1
32 20 1
32 21 1
32 22 1
32 23 1
32 25 1
32 27 1
32 28 1
32 30 1
33 0 1
33 1 1
33 3 1
33 4 1
33 6 1
33 8 1
33 9 1
33 11 1
33 13 1
33 14 1
33 18 1
33 22 1
33 24 1
33 26 1
33 27 1
33 30 1
33 31 1
33 32 1
34 0 1
34 1 1
34 2 1
34 3 1
34 4 1
34 5 1
34 6 1
34 9 1
34 10 1
34 11 1
34 17 1
34 19 1
34 20 1
34 21 1
34 24 1
34 25 1
34 26 1
34 28 1
34 29 1
34 30 1
34 31 1
35 0 1
35 2 1
35 5 1
35 7 1
35 10 1
35 11 1
35 14 1
35 17 1
35 18 1
35 19 1
35 20 1
35 21 1
35 22 1
35 25 1
35 26 1
35 28 1
35 29 1
35 30 1
35 31 1
35 33 1
36 2 1
36 5 1
36 6 1
36 7 1
36 8 1
36 10 1
36 11 1
36 12 1
36 15 1
36 16 1
36 19 1
36 21 1
36 22 1
36 23 1
36 24 1
36 25 1
36 26 1
36 27 1
36 29 1
36 30 1
36 31 1
36 32 1
36 33 1
36 34 1
37 0 1
37 1 1
37 4 1
37 5 1
37 6 1
37 8 1
37 10 1
37 12 1
37 14 1
37 16 1
37 17 1
37 18 1
37 19 1
37 20 1
37 23 1
37 24 1
37 25 1
37 26 1
37 35 1
37 36 1
38 0 1
38 1 1
38 2 1
38 3 1
38 4 1
38 5 1
38 7 1
38 8 1
38 18 1
38 20 1
38 21 1
38 23 1
38 25 1
38 26 1
38 28 1
38 29 1
38 30 1
39 0 1
39 2 1
39 4 1
39 5 1
39 7 1
39 10 1
39 14 1
39 15 1
39 16 1
39 17 1
39 20 1
39 22 1
39 23 1
39 24 1
39 25 1
39 26 1
39 30 1
39 31 1
39 33 1
39 35 1
39 38 1
40 3 1
40 4 1
40 6 1
40 13 1
40 16 1
40 17 1
40 19 1
40 20 1
40 21 1
40 22 1
40 23 1
40 25 1
40 26 1
40 27 1
40 28 1
40 29 1
40 31 1
40 38 1
40 39 1
41 0 1
41 1 1
41 2 1
41 3 1
41 4 1
41 6 1
41 7 1
41 9 1
41 10 1
41 11 1
41 12 1
41 13 1
41 14 1
41 17 1
41 18 1
41 19 1
41 20 1
41 21 1
41 22 1
41 23 1
41 24 1
41 26 1
41 27 1
41 30 1
41 33 1
41 35 1
41 37 1
41 38 1
41 39 1
42 0 1
42 3 1
42 4 1
42 6 1
42 8 1
42 9 1
42 10 1
42 11 1
42 12 1
42 15 1
42 16 1
42 17 1
42 18 1
42 20 1
42 22 1
42 23 1
42 25 1
42 29 1
42 32 1
42 34 1
42 36 1
42 37 1
42 38 1
43 0 1
43 1 1
43 2 1
43 3 1
43 6 1
43 8 1
43 9 1
43 10 1
43 11 1
43 14 1
43 16 1
43 17 1
43 19 1
43 23 1
43 26 1
43 28 1
43 30 1
43 31 1
43 36 1
43 37 1
43 38 1
43 40 1
43 41 1
44 1 1
44 2 1
44 3 1
44 5 1
44 6 1
44 7 1
44 8 1
44 9 1
44 11 1
44 13 1
44 15 1
44 16 1
44 17 1
44 22 1
44 25 1
44 29 1
44 30 1
44 31 1
44 32 1
44 33 1
44 37 1
44 39 1
44 41 1
44 42 1
44 43 1
45 0 1
45 1 1
45 2 1
45 7 1
45 8 1
45 9 1
45 10 1
45 11 1
45 12 1
45 14 1
45 17 1
45 20 1
45 21 1
45 22 1
45 23 1
45 26 1
45 27 1
45 29 1
45 32 1
45 34 1
45 40 1
45 42 1
45 43 1
45 44 1
46 0 1
46 2 1
46 5 1
46 8 1
46 12 1
46 14 1
46 15 1
46 16 1
46 18 1
46 21 1
46 23 1
46 24 1
46 25 1
46 26 1
46 27 1
46 28 1
46 30 1
46 34 1
46 36 1
46 38 1
46 39 1
46 40 1
46 41 1
46 44 1
46 45 1
47 1 1
47 4 1
47 8 1
47 9 1
47 10 1
47 11 1
47 12 1
47 13 1
47 14 1
47 16 1
47 18 1
47 19 1
47 21 1
47 22 1
47 23 1
47 25 1
47 27 1
47 28 1
47 29 1
47 33 1
47 37 1
47 38 1
47 39 1
47 41 1
48 2 1
48 4 1
48 5 1
48 6 1
48 7 1
48 8 1
48 9 1
48 10 1
48 11 1
48 13 1
48 16 1
48 20 1
48 21 1
48 27 1
48 29 1
48 30 1
48 32 1
48 35 1
48 39 1
48 41 1
48 43 1
48 46 1
48 47 1
49 0 1
49 1 1
49 2 1
49 3 1
49 5 1
49 6 1
49 7 1
49 8 1
49 9 1
49 13 1
49 14 1
49 16 1
49 17 1
49 18 1
49 19 1
49 22 1
49 23 1
49 25 1
49 30 1
49 33 1
49 34 1
49 38 1
49 39 1
49 40 1
49 41 1
49 42 1
49 43 1
49 44 1
49 45 1
49 48 1
50 0 1
50 2 1
50 4 1
50 13 1
50 18 1
50 19 1
50 31 1
50 36 1
50 37 1
50 38 1
50 43 1
50 45 1
50 46 1
50 47 1
50 48 1
50 49 1
51 0 1
51 1 1
51 4 1
51 5 1
51 6 1
51 7 1
51 8 1
51 9 1
51 10 1
51 13 1
51 14 1
51 15 1
51 17 1
51 19 1
51 20 1
51 21 1
51 22 1
51 23 1
51 25 1
51 29 1
51 30 1
51 33 1
51 34 1
51 36 1
51 37 1
51 39 1
51 41 1
51 42 1
51 43 1
51 45 1
51 46 1
51 48 1
51 49 1
52 0 1
52 3 1
52 4 1
52 5 1
52 8 1
52 10 1
52 11 1
52 13 1
52 16 1
52 17 1
52 18 1
52 20 1
52 22 1
52 25 1
52 28 1
52 31 1
52 32 1
52 33 1
52 34 1
52 36 1
52 37 1
52 38 1
52 40 1
52 42 1
52 43 1
52 44 1
52 45 1
52 48 1
52 50 1
53 0 1
53 1 1
53 4 1
53 5 1
53 6 1
53 7 1
53 8 1
53 9 1
53 10 1
53 14 1
53 17 1
53 18 1
53 20 1
53 23 1
53 25 1
53 26 1
53 27 1
53 28 1
53 32 1
53 33 1
53 34 1
53 36 1
53 38 1
53 40 1
53 43 1
53 44 1
54 0 1
54 2 1
54 4 1
54 9 1
54 11 1
54 13 1
54 15 1
54 20 1
54 22 1
54 23 1
54 26 1
54 27 1
54 28 1
54 30 1
54 35 1
54 36 1
54 38 1
54 41 1
54 45 1
54 46 1
54 47 1
54 49 1
54 52 1
54 53 1
55 0 1
55 2 1
55 3 1
55 5 1
55 7 1
55 8 1
55 14 1
55 17 1
55 18 1
55 20 1
55 21 1
55 22 1
55 24 1
55 28 1
55 29 1
55 30 1
55 32 1
55 35 1
55 36 1
55 38 1
55 40 1
55 45 1
55 46 1
55 47 1
55 51 1
55 53 1
56 0 1
56 1 1
56 6 1
56 9 1
56 10 1
56 11 1
56 12 1
56 13 1
56 16 1
56 17 1
56 18 1
56 19 1
56 20 1
56 21 1
56 27 1
56 28 1
56 29 1
56 30 1
56 34 1
56 35 1
56 40 1
56 42 1
56 43 1
56 45 1
56 49 1
56 54 1
56 55 1
57 2 1
57 4 1
57 5 1
57 6 1
57 9 1
57 10 1
57 11 1
57 12 1
57 14 1
57 19 1
57 21 1
57 23 1
57 24 1
57 25 1
57 26 1
57 28 1
57 29 1
57 34 1
57 35 1
57 36 1
57 39 1
57 41 1
57 44 1
57 47 1
57 48 1
57 49 1
57 50 1
57 52 1
57 54 1
57 55 1
57 56 1
58 0 1
58 1 1
58 2 1
58 5 1
58 6 1
58 9 1
58 11 1
58 12 1
58 13 1
58 14 1
58 18 1
58 22 1
58 26 1
58 34 1
58 37 1
58 39 1
58 45 1
58 46 1
58 47 1
58 48 1
58 53 1
58 54 1
58 55 1
59 1 1
59 2 1
59 4 1
59 5 1
59 6 1
59 8 1
59 9 1
59 10 1
59 13 1
59 14 1
59 15 1
59 19 1
59 20 1
59 30 1
59 31 1
59 32 1
59 33 1
59 34 1
59 37 1
59 39 1
59 41 1
59 42 1
59 43 1
59 44 1
59 52 1
59 53 1
59 55 1
